(set-info :smt-lib-version 2.6)
(set-logic QF_UFLRA)
(set-info :source |
MathSat group

|)
(set-info :category "random")
(set-info :status sat)
(declare-fun x0 () Real)
(declare-fun x1 () Real)
(declare-fun x2 () Real)
(declare-fun x3 () Real)
(declare-fun x4 () Real)
(declare-fun x5 () Real)
(declare-fun x6 () Real)
(declare-fun x7 () Real)
(declare-fun x8 () Real)
(declare-fun x9 () Real)
(declare-fun x10 () Real)
(declare-fun x11 () Real)
(declare-fun x12 () Real)
(declare-fun x13 () Real)
(declare-fun x14 () Real)
(declare-fun x15 () Real)
(declare-fun x16 () Real)
(declare-fun x17 () Real)
(declare-fun x18 () Real)
(declare-fun x19 () Real)
(declare-fun x20 () Real)
(declare-fun x21 () Real)
(declare-fun x22 () Real)
(declare-fun x23 () Real)
(declare-fun x24 () Real)
(declare-fun x25 () Real)
(declare-fun x26 () Real)
(declare-fun x27 () Real)
(declare-fun x28 () Real)
(declare-fun x29 () Real)
(declare-fun f0_1 (Real) Real)
(declare-fun f0_2 (Real Real) Real)
(declare-fun f0_3 (Real Real Real) Real)
(declare-fun f0_4 (Real Real Real Real) Real)
(declare-fun P0 () Bool)
(declare-fun P1 () Bool)
(declare-fun P2 () Bool)
(declare-fun P3 () Bool)
(declare-fun P4 () Bool)
(declare-fun P5 () Bool)
(declare-fun P6 () Bool)
(declare-fun P7 () Bool)
(declare-fun P8 () Bool)
(declare-fun P9 () Bool)
(declare-fun P10 () Bool)
(declare-fun P11 () Bool)
(declare-fun P12 () Bool)
(declare-fun P13 () Bool)
(declare-fun P14 () Bool)
(declare-fun P15 () Bool)
(declare-fun P16 () Bool)
(declare-fun P17 () Bool)
(declare-fun P18 () Bool)
(declare-fun P19 () Bool)
(declare-fun P20 () Bool)
(declare-fun P21 () Bool)
(declare-fun P22 () Bool)
(declare-fun P23 () Bool)
(declare-fun P24 () Bool)
(declare-fun P25 () Bool)
(declare-fun P26 () Bool)
(declare-fun P27 () Bool)
(declare-fun P28 () Bool)
(declare-fun P29 () Bool)
(assert (let ((?v_47 (<= (+ (- (* 28 x8) (* 21 x10)) (* 9 x4)) 0)) (?v_66 (< (+ (- (* 34 x15) (* 10 x7)) (* 31 x18)) 31)) (?v_105 (<= (- (+ (* 24 x16) (* 33 x24)) (* 34 x22)) 29)) (?v_149 (<= (+ (- (* 3 x16) (* 28 x15)) (* 37 x8)) 6)) (?v_116 (< (+ (- (* 21 x5) (* 18 x2)) (* 31 x13)) 27)) (?v_5 (distinct (- (- (* 11 x16) (* 5 x26)) (* 7 x23)) 9)) (?v_87 (< (+ (- (* 2 x13) (* 7 x7)) (* 42 x26)) 5)) (?v_6 (= x17 (f0_2 x17 x12))) (?v_39 (distinct (f0_2 x15 x9) x8)) (?v_15 (= x22 (f0_1 x4))) (?v_34 (= (f0_2 x25 x19) x25)) (?v_40 (distinct x24 x2)) (?v_8 (= (f0_2 x12 x16) x29)) (?v_60 (distinct x12 (f0_2 x26 x3))) (?v_44 (f0_1 x26))) (let ((?v_50 (distinct x23 ?v_44)) (?v_126 (= (f0_2 x11 x13) x27)) (?v_55 (f0_2 x2 x23))) (let ((?v_74 (distinct ?v_55 (f0_2 x17 x24))) (?v_45 (= (f0_2 x24 x22) (f0_2 x4 x18))) (?v_42 (distinct x24 (f0_2 x25 x20))) (?v_41 (distinct x10 x8)) (?v_143 (distinct (f0_1 x23) (f0_2 x6 x12))) (?v_10 (= (f0_2 x14 x17) x12)) (?v_103 (= (f0_2 x15 x0) (f0_2 x21 x26))) (?v_2 (f0_1 x6))) (let ((?v_68 (= x17 ?v_2)) (?v_130 (distinct (f0_1 x24) (f0_2 x7 x22))) (?v_4 (distinct x24 x18)) (?v_128 (= (f0_2 x0 x5) (f0_2 x16 x27))) (?v_24 (= (f0_2 x3 x13) ?v_44)) (?v_62 (distinct (f0_2 x27 x6) (f0_2 x29 x2))) (?v_22 (f0_1 x22))) (let ((?v_79 (= ?v_22 (f0_1 x1))) (?v_99 (= (f0_2 x7 x29) x12)) (?v_12 (= ?v_2 x28)) (?v_18 (distinct ?v_55 (f0_2 x3 x1))) (?v_27 (distinct x22 ?v_22)) (?v_1 (distinct (f0_2 x20 x1) (f0_1 x8))) (?v_17 (distinct (f0_1 x9) (f0_1 x7))) (?v_59 (distinct (f0_2 x22 x10) (f0_1 x17))) (?v_13 (not P14)) (?v_94 (not P9))) (let ((?v_89 (not ?v_17)) (?v_61 (not P26)) (?v_0 (not ?v_130)) (?v_9 (not ?v_1)) (?v_64 (not ?v_18)) (?v_28 (not ?v_128)) (?v_11 (not ?v_8)) (?v_32 (not P8)) (?v_19 (not P12)) (?v_96 (not P17)) (?v_21 (not P4)) (?v_54 (not P16)) (?v_37 (not ?v_12)) (?v_25 (not P25)) (?v_33 (not ?v_103)) (?v_23 (not ?v_143)) (?v_117 (not ?v_24)) (?v_38 (not ?v_47)) (?v_51 (not ?v_4)) (?v_69 (not P20)) (?v_57 (not P0)) (?v_112 (not P5)) (?v_122 (not ?v_66)) (?v_113 (not ?v_10)) (?v_109 (not ?v_79)) (?v_29 (not ?v_15)) (?v_107 (not ?v_41)) (?v_46 (not P23)) (?v_137 (not P11)) (?v_110 (not P19)) (?v_134 (not ?v_39)) (?v_82 (not ?v_40)) (?v_93 (not P1)) (?v_77 (not ?v_50)) (?v_85 (not ?v_45)) (?v_125 (not ?v_126)) (?v_72 (not P18)) (?v_75 (not P10)) (?v_70 (not ?v_59)) (?v_78 (not ?v_6)) (?v_108 (not ?v_60)) (?v_114 (not P22)) (?v_100 (not ?v_68)) (?v_90 (not P29)) (?v_98 (not P7)) (?v_118 (not P15)) (?v_91 (not P21)) (?v_81 (not ?v_34)) (?v_83 (not ?v_5)) (?v_119 (not P27)) (?v_136 (not ?v_27)) (?v_106 (not P3)) (?v_140 (not ?v_74)) (?v_121 (not ?v_62)) (?v_131 (not P6)) (?v_129 (not ?v_42)) (?v_120 (not ?v_99)) (?v_152 (not P24)) (?v_123 (not ?v_105)) (?v_145 (not P2)) (?v_141 (not ?v_149)) (?v_148 (not P28)) (?v_139 (not P13)) (?v_150 (not ?v_116)) (?v_151 (not ?v_87)) (?v_3 (< (+ (* 19 x11) (* 41 x9) (* 7 x5)) 26)) (?v_67 (= (- (+ (* 13 x17) (* 40 x26)) 0) 39)) (?v_71 (distinct (- (- (* 33 x11) (* 24 x29)) 0) 2))) (let ((?v_88 (not ?v_71)) (?v_135 (not ?v_3)) (?v_142 (not ?v_67)) (?v_7 (<= (- (* (- 18) x21) (* 11 x10)) 26))) (let ((?v_115 (not ?v_7)) (?v_53 (< (- (+ (* (- 19) x7) (* 20 x22)) (* 2 x17)) (- 31)))) (let ((?v_56 (not ?v_53)) (?v_36 (< (+ (- (* (- 11) x25) (* 10 x17)) (* 33 x3)) 13))) (let ((?v_20 (not ?v_36)) (?v_14 (< (- (- (* 34 x5) (* 18 x28)) (* 8 x28)) (- 9))) (?v_30 (= (+ (- (* (- 40) x16) (* 40 x9)) (* 6 x17)) (- 27)))) (let ((?v_35 (not ?v_30)) (?v_16 (< (+ (* (- 6) x26) (* 13 x14) (* 15 x26)) (- 19))) (?v_86 (= (+ (* (- 5) x7) (* 14 x5) (* 41 x15)) (- 19)))) (let ((?v_48 (not ?v_86)) (?v_26 (not ?v_14)) (?v_104 (<= (- (* (- 31) x17) (* 23 x29)) (- 21)))) (let ((?v_102 (not ?v_104)) (?v_58 (<= (+ (* (- 4) x16) (* 32 x18) (* 4 x7)) 39)) (?v_153 (= (- (- (* 9 x2) (* 7 x22)) (* 19 x12)) (- 33)))) (let ((?v_132 (not ?v_153)) (?v_49 (< (- (+ (* 18 x14) (* 3 x9)) x16) (- 29))) (?v_31 (< (- (+ (* (- 27) x8) (* 20 x14)) (* 6 x26)) 12)) (?v_84 (distinct (- (+ (* (- 13) x13) (* 13 x27)) (* 22 x2)) 20)) (?v_52 (distinct (+ (- (* 39 x29) (* 7 x13)) (* 27 x10)) (- 41)))) (let ((?v_124 (not ?v_31)) (?v_43 (<= (- (- (* 17 x23) (* 17 x13)) (* 11 x13)) (- 9))) (?v_133 (or ?v_35 ?v_36))) (let ((?v_76 (not ?v_43)) (?v_147 (not ?v_16)) (?v_65 (<= (+ (* (- 26) x6) (* 40 x13) (* 18 x22)) (- 10))) (?v_63 (not ?v_58))) (let ((?v_73 (not ?v_65)) (?v_80 (< (+ (* (- 18) x20) (* 6 x23) (* 18 x5)) (- 11)))) (let ((?v_111 (not ?v_80)) (?v_95 (< (+ (- (* (- 17) x13) (* 12 x29)) (* 32 x19)) 22)) (?v_138 (<= (- (+ (* (- 3) x20) (* 40 x4)) (* 18 x25)) (- 8)))) (let ((?v_127 (not ?v_138)) (?v_101 (not ?v_84)) (?v_92 (distinct (- (- (* (- 6) x15) (* 20 x28)) (* 12 x14)) (- 41))) (?v_97 (not ?v_95))) (let ((?v_146 (not ?v_92)) (?v_144 (not ?v_52))) (and (and (and (and (and (and (and (and (and (and (and (and (and (and (and (and (and (and (and (and (and (and (and (and (and (and (and (and (and (and (and (and (and (and (and (and (and (and (and (and (and (and (and (and (and (and (and (and (and (and (and (and (and (and (and (and (and (and (and (and (and (and (and (and (and (and (and (and (and (and (and (and (and (and (and (and (and (and (and (and (and (and (and (and (and (and (and (and (and (and (and (and (and (and (and (and (and (and (and (and (and (and (and (and (and (and (and (and (and (and (and (and (and (and (and (and (and (and (and (and (and (and (and (and (and (and (and (and (and (and (and (and (and (and (and (and (and (and (and (and (and (and (and (and (and (and (and (and (and (and (and (and (and (and (and (and (and (and (and (and (and (and (and (and (and (and (and (and (and (and (and (and (and (and (and (and (and (and (and (and (and (and (and (and (and (and (and (and (and (and (and (and (and (and (and (and (and (and (and (and (and (and (and (and (and (and (and (and (and (and (and (and (and (and (and (and (and (and (and (and (and (and (and (and (and (and (and (and (and (and (and (and (and (and (and (and (and (and (and (and (and (and (and (and (and (and (and (and (and (and (and (and (and (and (and (and (and (and (and (and (and (and (and (and (and (and (and (and (and (and (and (and (and (and (and (and (and (and (and (and (and (and (and (and (and (and (and (and (and (and (and (and (and (and (and (and (and (and (and (and (and (and (and (and (and (and (and (and (and (and (and (and (and (and (and (and (and (and (and (and (and (and (and (and (and (and (and (and (and (and (and (and (and (and (and (and (and (and (and (and (and (and (and (and (and (and (and (and (and (and (and (and (and (and (and (and (and (and (and (or (or ?v_60 ?v_13) ?v_115) (or (or ?v_94 ?v_56) ?v_89)) (or (or ?v_61 ?v_4) ?v_20)) (or (or ?v_0 ?v_40) ?v_1)) (or (or P29 ?v_3) ?v_0)) (or (or ?v_8 ?v_10) P20)) (or (or ?v_14 ?v_9) ?v_68)) (or (or ?v_12 ?v_5) P9)) (or (or ?v_62 ?v_15) ?v_3)) (or (or ?v_6 ?v_4) ?v_5)) (or (or ?v_27 P15) ?v_0)) (or (or ?v_64 ?v_67) ?v_35)) (or (or ?v_6 ?v_28) P9)) (or (or ?v_7 ?v_11) ?v_9)) (or (or ?v_32 P26) ?v_19)) (or (or P9 P26) ?v_10)) (or (or ?v_11 ?v_96) ?v_16)) (or (or ?v_48 ?v_21) ?v_54)) (or (or P19 ?v_5) ?v_37)) (or (or ?v_13 ?v_26) ?v_25)) (or (or ?v_15 ?v_33) ?v_16)) (or (or ?v_17 P15) ?v_34)) (or (or ?v_23 ?v_17) ?v_102)) (or (or ?v_17 ?v_16) ?v_58)) (or (or ?v_18 ?v_117) ?v_38)) (or (or ?v_16 ?v_51) ?v_19)) (or (or ?v_116 ?v_69) ?v_4)) (or (or ?v_57 ?v_39) ?v_112)) (or (or P1 P26) ?v_132)) (or (or ?v_122 ?v_20) (not ?v_49))) (or (or ?v_15 ?v_113) ?v_99)) (or (or ?v_21 ?v_105) ?v_109)) (or (or ?v_23 ?v_45) ?v_29)) (or (or ?v_24 ?v_25) ?v_26)) (or (or ?v_31 ?v_26) ?v_27)) (or (or ?v_84 ?v_107) ?v_28)) (or (or ?v_29 ?v_30) P11)) (or (or P25 ?v_17) P8)) (or (or ?v_46 ?v_52) ?v_30)) (or (or ?v_124 ?v_32) ?v_33)) (or (or P25 P17) ?v_34)) (or (or ?v_43 ?v_137) ?v_26)) (or ?v_133 ?v_37)) (or (or ?v_110 ?v_59) ?v_10)) (or (or ?v_21 ?v_26) ?v_38)) (or (or ?v_36 P3) ?v_134)) (or (or ?v_1 ?v_42) ?v_5)) (or (or ?v_13 ?v_12) ?v_82)) (or (or P21 ?v_12) ?v_41)) (or (or ?v_42 ?v_93) P11)) (or (or ?v_76 ?v_77) ?v_9)) (or (or ?v_85 ?v_46) ?v_125)) (or (or P6 ?v_147) ?v_72)) (or (or ?v_7 ?v_47) ?v_28)) (or (or ?v_48 ?v_49) ?v_88)) (or (or ?v_50 P20) ?v_49)) (or (or ?v_21 ?v_48) ?v_51)) (or (or P11 P16) ?v_52)) (or (or P1 ?v_53) P9)) (or (or ?v_20 P13) ?v_16)) (or (or ?v_54 ?v_40) P26)) (or (or ?v_74 ?v_65) ?v_75)) (or (or ?v_56 ?v_35) ?v_57)) (or (or P17 ?v_63) ?v_70)) (or (or ?v_6 ?v_78) P29)) (or (or ?v_108 ?v_61) ?v_114)) (or (or ?v_62 ?v_63) ?v_64)) (or (or ?v_64 ?v_62) ?v_53)) (or (or ?v_38 ?v_12) ?v_59)) (or (or P22 ?v_11) ?v_73)) (or (or P4 P21) ?v_65)) (or (or ?v_111 P23) ?v_66)) (or (or ?v_17 ?v_32) ?v_67)) (or (or P24 ?v_100) ?v_69)) (or (or ?v_70 ?v_25) ?v_8)) (or (or ?v_71 ?v_72) ?v_37)) (or (or ?v_73 ?v_11) P1)) (or (or ?v_51 ?v_95) ?v_9)) (or (or ?v_49 ?v_90) ?v_40)) (or (or P21 ?v_61) ?v_1)) (or (or ?v_74 ?v_6) ?v_98)) (or (or P25 ?v_14) ?v_32)) (or (or ?v_118 ?v_16) ?v_3)) (or (or ?v_31 ?v_48) ?v_49)) (or (or ?v_91 ?v_67) P0)) (or (or ?v_81 ?v_74) ?v_40)) (or (or ?v_37 ?v_65) ?v_43)) (or (or P9 ?v_74) ?v_31)) (or (or ?v_75 ?v_66) ?v_24)) (or (or ?v_0 ?v_33) ?v_42)) (or (or ?v_83 ?v_33) ?v_40)) (or (or ?v_37 ?v_76) P17)) (or (or ?v_18 ?v_64) ?v_77)) (or (or P16 ?v_78) ?v_50)) (or (or ?v_18 ?v_87) ?v_79)) (or (or ?v_5 ?v_4) ?v_74)) (or (or P17 P21) ?v_127)) (or (or ?v_51 ?v_74) ?v_80)) (or (or ?v_119 ?v_81) ?v_82)) (or (or ?v_83 P29) ?v_136)) (or (or ?v_48 ?v_84) ?v_60)) (or (or P4 ?v_85) P29)) (or (or ?v_47 ?v_86) ?v_15)) (or (or ?v_101 ?v_3) ?v_76)) (or (or ?v_87 ?v_88) ?v_92)) (or (or P20 ?v_61) ?v_70)) (or (or ?v_83 P10) P0)) (or (or ?v_58 ?v_46) ?v_30)) (or (or P13 ?v_36) P6)) (or (or P26 ?v_89) ?v_11)) (or (or P9 ?v_18) ?v_66)) (or (or ?v_90 ?v_12) ?v_50)) (or (or ?v_27 ?v_91) P6)) (or (or ?v_92 ?v_93) ?v_56)) (or (or ?v_67 P14) ?v_94)) (or (or P23 ?v_62) ?v_30)) (or (or ?v_97 ?v_76) P28)) (or (or ?v_96 ?v_33) ?v_97)) (or (or ?v_98 ?v_99) ?v_100)) (or (or ?v_5 P12) ?v_87)) (or (or ?v_0 ?v_81) ?v_38)) (or (or ?v_135 ?v_43) P22)) (or (or ?v_80 ?v_84) ?v_68)) (or (or P17 P3) ?v_87)) (or (or ?v_93 ?v_101) ?v_106)) (or (or ?v_102 ?v_61) ?v_103)) (or (or P17 ?v_104) ?v_28)) (or (or ?v_61 P3) P14)) (or (or ?v_75 ?v_75) ?v_105)) (or (or ?v_78 ?v_47) ?v_92)) (or (or ?v_87 P22) P6)) (or (or ?v_26 ?v_98) ?v_51)) (or (or ?v_140 ?v_106) ?v_94)) (or (or ?v_87 ?v_107) ?v_68)) (or (or ?v_24 ?v_19) ?v_85)) (or (or P11 ?v_108) P1)) (or (or ?v_121 ?v_46) ?v_109)) (or (or ?v_110 ?v_29) ?v_111)) (or (or ?v_78 ?v_112) ?v_0)) (or (or ?v_79 ?v_131) ?v_33)) (or (or ?v_14 ?v_89) ?v_113)) (or (or ?v_28 ?v_114) ?v_106)) (or (or ?v_104 ?v_106) P29)) (or (or ?v_57 P15) P28)) (or (or ?v_53 ?v_115) ?v_102)) (or (or ?v_77 ?v_129) ?v_116)) (or (or ?v_8 ?v_64) ?v_117)) (or (or ?v_37 P22) P2)) (or (or ?v_50 ?v_102) ?v_58)) (or (or ?v_17 ?v_116) ?v_118)) (or (or P24 ?v_120) ?v_146)) (or (or ?v_119 ?v_86) ?v_40)) (or (or P17 ?v_72) ?v_9)) (or (or ?v_32 ?v_79) P6)) (or (or ?v_152 ?v_23) ?v_119)) (or (or ?v_83 ?v_120) ?v_123)) (or (or ?v_84 ?v_121) P20)) (or (or ?v_122 ?v_37) P18)) (or (or ?v_123 ?v_24) ?v_79)) (or (or P8 ?v_77) P26)) (or (or ?v_124 ?v_75) ?v_125)) (or (or P29 ?v_126) ?v_9)) (or (or ?v_88 ?v_96) ?v_127)) (or (or ?v_115 ?v_128) P14)) (or (or ?v_34 ?v_39) P13)) (or (or P9 ?v_78) ?v_124)) (or (or ?v_103 ?v_41) ?v_129)) (or (or P26 ?v_142) ?v_123)) (or (or ?v_145 ?v_75) ?v_141)) (or (or ?v_15 ?v_129) ?v_148)) (or (or ?v_17 ?v_97) ?v_76)) (or (or ?v_10 ?v_27) ?v_130)) (or (or P16 ?v_131) ?v_47)) (or (or ?v_132 P17) ?v_89)) (or (or ?v_96 ?v_107) ?v_53)) (or ?v_133 P13)) (or (or P11 ?v_39) P1)) (or (or ?v_121 ?v_36) ?v_132)) (or (or P29 ?v_29) ?v_38)) (or (or ?v_48 ?v_85) P5)) (or (or ?v_68 P11) ?v_109)) (or (or ?v_134 ?v_132) P20)) (or (or ?v_0 ?v_3) ?v_41)) (or (or ?v_91 ?v_126) P19)) (or (or ?v_135 ?v_71) ?v_125)) (or (or ?v_13 P26) ?v_121)) (or (or P22 ?v_27) P3)) (or (or ?v_51 ?v_125) P10)) (or (or ?v_9 ?v_16) ?v_34)) (or (or ?v_9 ?v_139) P23)) (or (or ?v_50 ?v_7) ?v_49)) (or (or P18 P29) ?v_88)) (or (or ?v_12 ?v_98) ?v_125)) (or (or ?v_56 ?v_86) P28)) (or (or ?v_100 ?v_68) ?v_131)) (or (or ?v_66 P21) ?v_108)) (or (or P12 ?v_36) ?v_3)) (or (or ?v_13 ?v_134) ?v_80)) (or (or P0 ?v_117) ?v_115)) (or (or ?v_24 P24) ?v_81)) (or (or ?v_3 ?v_124) P21)) (or (or ?v_70 ?v_136) ?v_77)) (or (or ?v_39 ?v_34) ?v_100)) (or (or ?v_16 ?v_47) ?v_137)) (or (or ?v_150 ?v_94) ?v_36)) (or (or P10 ?v_135) P12)) (or (or ?v_138 ?v_126) ?v_26)) (or (or ?v_10 ?v_49) ?v_53)) (or (or ?v_77 P1) ?v_81)) (or (or ?v_111 ?v_41) ?v_50)) (or (or ?v_127 ?v_74) ?v_53)) (or (or ?v_92 ?v_95) ?v_112)) (or (or ?v_53 ?v_126) ?v_132)) (or (or ?v_119 ?v_7) P9)) (or (or ?v_62 ?v_116) ?v_16)) (or (or ?v_113 P15) P12)) (or (or ?v_32 ?v_105) ?v_139)) (or (or P4 ?v_103) ?v_84)) (or (or ?v_136 ?v_140) ?v_53)) (or (or ?v_126 ?v_101) ?v_37)) (or (or ?v_51 ?v_7) ?v_122)) (or (or ?v_21 ?v_20) P18)) (or (or P29 ?v_40) ?v_15)) (or (or ?v_82 P26) ?v_124)) (or (or ?v_109 ?v_59) P12)) (or (or ?v_66 ?v_102) ?v_26)) (or (or ?v_63 ?v_76) ?v_93)) (or (or ?v_135 ?v_127) ?v_120)) (or (or ?v_5 ?v_103) ?v_52)) (or (or ?v_59 P13) P27)) (or (or ?v_92 ?v_97) ?v_116)) (or (or ?v_61 ?v_10) P9)) (or (or ?v_118 ?v_36) ?v_141)) (or (or ?v_72 ?v_13) P27)) (or (or ?v_94 ?v_92) ?v_98)) (or (or ?v_20 ?v_66) ?v_90)) (or (or ?v_79 ?v_104) P25)) (or (or ?v_144 ?v_83) P2)) (or (or ?v_124 ?v_142) ?v_92)) (or (or ?v_104 ?v_143) ?v_127)) (or (or ?v_42 ?v_117) ?v_77)) (or (or ?v_107 ?v_15) ?v_138)) (or (or ?v_144 P3) ?v_110)) (or (or ?v_102 ?v_104) ?v_140)) (or (or P18 ?v_113) ?v_46)) (or (or ?v_27 P7) ?v_140)) (or (or ?v_8 ?v_131) P5)) (or (or ?v_65 ?v_27) ?v_141)) (or (or ?v_118 ?v_134) ?v_121)) (or (or ?v_117 ?v_27) P25)) (or (or ?v_10 ?v_34) ?v_66)) (or (or ?v_101 ?v_10) ?v_143)) (or (or ?v_54 P11) ?v_120)) (or (or ?v_76 P6) ?v_66)) (or (or ?v_84 ?v_145) ?v_57)) (or (or ?v_137 ?v_78) ?v_30)) (or (or ?v_11 ?v_106) ?v_43)) (or (or ?v_80 ?v_17) ?v_146)) (or (or P15 ?v_139) ?v_94)) (or (or ?v_113 ?v_102) ?v_26)) (or (or P15 ?v_62) ?v_147)) (or (or ?v_24 P4) ?v_53)) (or (or ?v_46 ?v_92) ?v_65)) (or (or ?v_93 ?v_116) ?v_36)) (or (or ?v_80 ?v_18) P12)) (or (or ?v_85 ?v_3) P18)) (or (or ?v_109 P20) P16)) (or (or P23 ?v_90) ?v_35)) (or (or ?v_64 ?v_75) ?v_37)) (or (or ?v_106 ?v_115) ?v_14)) (or (or ?v_105 ?v_41) ?v_111)) (or (or ?v_62 P7) ?v_118)) (or (or ?v_29 ?v_148) ?v_90)) (or (or ?v_91 ?v_36) ?v_1)) (or (or ?v_149 P17) P11)) (or (or ?v_67 P18) P15)) (or (or ?v_60 ?v_66) ?v_110)) (or (or ?v_122 ?v_84) P19)) (or (or ?v_50 P7) ?v_90)) (or (or ?v_136 ?v_49) ?v_151)) (or (or P22 ?v_19) ?v_61)) (or (or ?v_150 ?v_80) ?v_70)) (or (or P25 ?v_48) ?v_93)) (or (or ?v_0 ?v_21) ?v_77)) (or (or P21 P17) ?v_122)) (or (or ?v_46 ?v_135) ?v_10)) (or (or ?v_106 ?v_19) P20)) (or (or P13 P14) ?v_104)) (or (or ?v_33 P24) ?v_120)) (or (or ?v_145 ?v_64) ?v_53)) (or (or P22 P20) ?v_150)) (or (or ?v_20 ?v_70) ?v_137)) (or (or ?v_34 ?v_86) P28)) (or (or ?v_106 ?v_10) ?v_81)) (or (or ?v_117 ?v_38) ?v_83)) (or (or ?v_96 ?v_80) ?v_147)) (or (or ?v_110 ?v_1) ?v_99)) (or (or ?v_88 P3) ?v_140)) (or (or ?v_47 ?v_35) P15)) (or (or ?v_123 ?v_135) P16)) (or (or ?v_151 ?v_144) ?v_66)) (or (or ?v_51 P10) ?v_80)) (or (or ?v_79 ?v_126) ?v_111)) (or (or ?v_147 ?v_100) ?v_23)) (or (or P6 P19) ?v_98)) (or (or P13 ?v_78) ?v_149)) (or (or ?v_82 ?v_81) ?v_27)) (or (or ?v_116 ?v_128) P18)) (or (or P24 ?v_77) P13)) (or (or ?v_135 ?v_144) ?v_90)) (or (or P25 ?v_92) ?v_34)) (or (or ?v_7 ?v_67) ?v_92)) (or (or P15 ?v_11) P9)) (or (or ?v_15 ?v_127) ?v_147)) (or (or P23 ?v_18) P2)) (or (or ?v_138 ?v_152) ?v_140)) (or (or ?v_47 P26) ?v_73)) (or (or ?v_36 ?v_37) ?v_63)) (or (or ?v_15 ?v_97) ?v_89)) (or (or ?v_65 P18) ?v_84)) (or (or P26 ?v_29) P8)) (or (or ?v_147 ?v_59) ?v_30)) (or (or ?v_97 P18) ?v_89)) (or (or ?v_147 ?v_1) ?v_73)) (or (or ?v_45 P2) ?v_28)) (or (or ?v_109 ?v_101) ?v_118)) (or (or ?v_100 ?v_1) P14)) (or (or ?v_5 ?v_127) ?v_70)) (or (or P27 ?v_75) ?v_14)) (or (or ?v_66 ?v_63) ?v_92)) (or (or ?v_65 P23) ?v_66)) (or (or ?v_90 ?v_145) ?v_104)) (or (or ?v_56 ?v_142) ?v_70)) (or (or ?v_84 P20) ?v_59)) (or (or ?v_116 ?v_7) P12)) (or (or ?v_121 ?v_112) ?v_81)) (or (or ?v_98 ?v_34) P29)) (or (or ?v_13 ?v_50) ?v_134)) (or (or ?v_30 ?v_24) ?v_129)) (or (or ?v_97 P1) ?v_124)) (or (or ?v_112 ?v_56) P22)) (or (or P18 P11) ?v_59)) (or (or ?v_109 ?v_119) P15)) (or (or ?v_53 ?v_30) ?v_71)) (or (or ?v_126 ?v_117) ?v_144)) (or (or ?v_110 ?v_68) P9)) (or (or ?v_146 ?v_13) ?v_70)) (or (or ?v_29 ?v_117) ?v_38)) (or (or ?v_67 ?v_23) ?v_114)) (or (or ?v_92 ?v_10) ?v_139)) (or (or ?v_19 P25) ?v_17)) (or (or P25 ?v_36) ?v_71)) (or (or ?v_148 ?v_115) ?v_99)) (or (or ?v_87 ?v_153) ?v_108)) (or (or ?v_61 ?v_94) ?v_23)) (or (or ?v_125 ?v_39) ?v_99)) (or (or ?v_137 ?v_62) ?v_86)) (or (or P25 P14) ?v_17)) (or (or ?v_9 ?v_146) ?v_105)) (or (or ?v_132 ?v_100) ?v_82)))))))))))))))))))))))
(check-sat)
(exit)
